666276
1,72,63,32,118,71,140,135,83,157,74,39,207,67,49,163,127,147,43,31,178,199,159,23,69,226,177,51,98,42,160,113,73,209,218,206,136,181,188,124,173,131,148,182,61,25,123,85,167,79,95,84,193,195,119,86,70,126,122,152,191,114,29,174,76,57,59,221,52,80,132,2,115,149,77,222,41,128,141,24,216,100,53,92,18,56,54,175,105,202,99,190,66,219,106,121,180,158,82,103,187,12,146,88,228,109,90,186,171,150,170,142,4,21,217,153,129,33,224,38,203,6,104,230,212,45,204,172,168,93,213,58,139,11,143,197,164,154,65,200,198,10,201,110,14,214,46,125,227,19,134,111,48,225,47,17,176,223,44,64,30,220,13,194,165,97,120,8,15,138,3,208,189,16,185,60,137,5,156,211,145,144,26,22,91,96,68,9,166,101,184,116,161,107,89,196,179,192,37,34,205,75,215,78,28,151,50,108,94,35,87,55,62,102,130,81,40,169,27,112,155,133,229,162,36,183,20,117,210,7,1